!   File created by the GAMESS Input Deck Generator Plugin for Avogadro
 $BASIS GBASIS=STO NGAUSS=3 $END
 $CONTRL SCFTYP=RHF RUNTYP=ENERGY $END

 $DATA 
Title
C1
C     6.0     3.29032    -2.38925    -1.98551
C     6.0     2.74929    -1.14469    -1.93365
C     6.0     2.85435    -0.31434    -0.68494
C     6.0     4.79250    -0.27913    -0.19948
C     6.0     5.23346    -1.70327    -0.35914
C     6.0     5.25152    -2.19723    -1.62885
C     6.0     5.76938    -1.28882    -2.67641
C     6.0     5.87150     0.03866    -2.51235
C     6.0     5.40239     0.64602    -1.23849
O     8.0     5.46418     1.86445    -1.08702
H     1.0     3.25513    -2.92758    -2.93607
H     1.0     3.25712    -2.99980    -1.07336
H     1.0     2.49095    -0.63018    -2.85593
H     1.0     2.60087     0.73728    -0.84085
H     1.0     2.35585    -0.75298     0.18327
H     1.0     4.84334     0.11765     0.81628
H     1.0     5.17780    -2.36840     0.49634
H     1.0     5.48173    -3.25869    -1.77828
H     1.0     6.11215    -1.75443    -3.59644
H     1.0     6.27013     0.70385    -3.26592
 $END
