!File created by the GAMESS Input Deck Generator Plugin for Avogadro
 $BASIS GBASIS=STO NGAUSS=3 $END
 $CONTRL SCFTYP=RHF RUNTYP=SADPOINT NZVAR=1 mult=1  ICHARG=0 $END
 $STATPT hssend=.t. OPTTOL=0.0005 NSTEP=50 $END
 $STATPT HESS=calc ihrep=5 $END
 $FORCE nvib=2 $END
 $ZMAT DLC=.t. auto=.t. nonvdw(1)=6,1,4,3,5,4,5,6,1,2,2,3 $END
!$ZMAT IFZMAT(1)=1,6,1,1,4,3 fvalue(1)=2.00,2.00 $END

 $DATA 
Title
C1
C     6.0     3.37832379    -2.32494903    -2.02734089
C     6.0     2.89449334    -1.00518429    -1.90041125
C     6.0     2.97549915    -0.37921169    -0.63658321
C     6.0     4.76688576    -0.31812292    -0.21606040
C     6.0     5.17855644    -1.66411567    -0.31213617
C     6.0     5.17472315    -2.22236848    -1.61105394
C     6.0     5.75654936    -1.33103764    -2.68849850
C     6.0     5.83296013    -0.02596283    -2.53663969
C     6.0     5.33603859     0.64690757    -1.27685952
O     8.0     5.37568855     1.85720932    -1.10694540
H     1.0     3.35646200    -2.76104093    -3.02164650
H     1.0     3.06933498    -3.04189420    -1.27335274
H     1.0     2.88056779    -0.37799063    -2.78118086
H     1.0     2.65538478     0.65727782    -0.58116531
H     1.0     2.62540102    -0.94799936     0.21927229
H     1.0     4.75681448     0.12565909     0.77643764
H     1.0     5.10149479    -2.31143498     0.55099928
H     1.0     5.48810148    -3.25955796    -1.69689500
H     1.0     6.10720730    -1.81519520    -3.59332371
H     1.0     6.26428175     0.61849910    -3.29147863
 $END
