!File created by the GAMESS Input Deck Generator Plugin for Avogadro
 $BASIS GBASIS=STO NGAUSS=3 $END
 $CONTRL SCFTYP=RHF RUNTYP=IRC NZVAR=1 mult=1  ICHARG=0 $END
 $STATPT hssend=.t. OPTTOL=0.0005 NSTEP=50 $END
 $STATPT HESS=READ ihrep=5 $END
 $FORCE nvib=2 $END
 $ZMAT DLC=.t. auto=.t. nonvdw(1)=6,1,4,3,5,4,5,6,1,2,2,3 $END
!$ZMAT IFZMAT(1)=1,6,1,1,4,3 fvalue(1)=2.00,2.00 $END
 $irc npoint=100 saddle=.t. tsengy=.t. forwrd=.t. opttol=0.0005 stride=0.2 $end

 $DATA 
Title
C1
C     6.0     3.29821706    -2.32875299    -2.03952122
C     6.0     2.86802197    -1.00452566    -1.91028821
C     6.0     2.89881253    -0.38239971    -0.65757960
C     6.0     4.84387350    -0.31892374    -0.19637573
C     6.0     5.19508505    -1.66722894    -0.30831727
C     6.0     5.24535418    -2.22110963    -1.59559536
C     6.0     5.77470684    -1.33028924    -2.68373823
C     6.0     5.83260441    -0.02140966    -2.53810191
C     6.0     5.35645390     0.64697093    -1.27004659
O     8.0     5.37024975     1.86100161    -1.11002386
H     1.0     3.30392718    -2.77293921    -3.02936196
H     1.0     3.03367567    -3.03615546    -1.26180780
H     1.0     2.86955667    -0.37771466    -2.79193568
H     1.0     2.61115408     0.66210502    -0.59319359
H     1.0     2.59560633    -0.95758265     0.21025199
H     1.0     4.79491568     0.12070660     0.79557800
H     1.0     5.09529448    -2.31853485     0.55015451
H     1.0     5.51966190    -3.26731968    -1.68986130
H     1.0     6.10801840    -1.80962741    -3.59752917
H     1.0     6.23214245     0.62634498    -3.30744219
 $END
 $HESS
LA ENERGÍA ES -416.1191946448 E (NUC) ES 517.4267375480
 1 1 1.42651292E-01 6.14394085E-02-1.16629551E-01-7.18606290E-02-1.17415144E-02
 1 2-5.06232542E-02 9.35980109E-02 3.32051218E-02 8.99277495E-02-1.01662394E-01
 1 3 6.70346090E-02-1.74637763E-02-2.42333324E-03-1.14688833E-01-1.16293288E-01
 1 4 1.09778388E-01 5.71506910E-02 1.27248894E-01-3.89201317E-02-2.09620323E-02
 1 5 6.10065389E-03-3.53057133E-03 1.06681932E-02-3.42691061E-05 7.52819712E-03
 1 6-3.25215917E-03 2.13298435E-03-1.47335772E-03 2.75284961E-03-1.33427476E-03
 1 7-4.58222785E-02-1.48853776E-03 8.52370216E-04-6.36675652E-02-6.88427953E-02
 1 8 8.64695847E-02 4.48748074E-03-4.26483317E-03 1.28522430E-03 1.51882710E-03
 1 9-1.20618648E-03-1.51229859E-03-1.53969640E-02 1.03334940E-04-6.62148142E-03
 1 10 6.31519526E-03 3.04091613E-04-1.73658509E-04-1.70816813E-03-2.87205583E-04
 1 11 1.42813287E-03-2.40097852E-02-5.43240865E-03-6.31729613E-03 1.27577576E-03
 1 12-5.29237376E-05 2.95777458E-04 3.31933253E-03-4.41403945E-04 1.26409178E-03
 2 1 6.14394085E-02 9.03127388E-01 1.91088732E-02 9.28042476E-02-4.01724223E-01
 2 2 2.65667416E-02-4.57368335E-02-3.77032486E-02-6.58710419E-02 5.93717006E-02
 2 3-4.02762931E-02 8.29622182E-03-4.26523391E-03 4.72743823E-02 4.88385247E-02
 2 4-8.99227301E-02-7.49750259E-02-5.53487832E-02-7.59879387E-03 3.82068891E-04
 2 5-2.40973862E-03 1.57181957E-03-2.47304985E-03 5.39542981E-04-5.92210472E-03
 2 6-6.72216603E-04 4.30277842E-04 1.38058167E-03 5.32926760E-04 6.49112132E-05
 2 7-1.55056962E-02-1.43209187E-01-1.40203465E-01-8.88334354E-02-2.43607959E-01
 2 8 1.71028968E-01 9.43978761E-03-1.56797128E-02-1.26010541E-02 3.61506088E-03
 2 9 2.30715985E-04-2.27369340E-03 6.71303873E-03 8.72984827E-04 1.85294565E-03
 2 10-4.05337205E-03 1.17774608E-03 1.43714842E-04 3.58391653E-04 1.70090206E-03
 2 11-2.36756815E-03 2.50997178E-02 3.83943898E-03 5.09775695E-03 1.90227882E-04
 2 12 7.92764087E-04-5.41493370E-04-1.44662421E-04 3.90584007E-04-3.52383741E-04
 3 1-1.16629551E-01 1.91088732E-02 8.88163982E-01 2.31934582E-02-4.67416540E-02
 3 2-1.60294352E-01 2.57672390E-02-3.96251813E-02 1.50417121E-02-1.58099743E-02
 3 3 7.64065727E-03-4.86536431E-03-1.77389960E-02-2.77105427E-02-2.88912936E-02
 3 4 2.59956795E-02 1.10769942E-02-2.96087870E-02 1.23130623E-02 6.87552308E-05
 3 5 5.78777377E-03 5.97251865E-04 2.58196334E-03 5.10097165E-05 2.96738281E-03
 3 6 6.81211509E-04-5.13999762E-03-7.83899582E-04 4.75460886E-04 1.14906467E-03
 3 7-8.17129510E-03-1.37521441E-01-4.09679663E-01 8.72483184E-02 1.77414495E-01
 3 8-2.73509917E-01-1.15021378E-02 3.35802908E-02 8.94174627E-03-3.16862365E-03
 3 9-3.01693113E-03-7.90229888E-03-1.61767245E-03 6.47367002E-05 9.09682543E-04
 3 10 2.91989495E-04 9.67899036E-04 9.58341985E-04-3.86581802E-04 8.16869283E-04
 3 11-5.30469510E-04-1.39564199E-03-1.60242171E-04-3.56277294E-04-7.60736057E-05
 3 12 2.78719557E-04-6.94282129E-04-1.09467273E-03 1.89399921E-05 4.70213730E-04
 4 1-7.18606290E-02 9.28042476E-02 2.31934582E-02 2.54835277E-01-1.24980014E-01
 4 2 1.91385849E-02-8.46310670E-02 1.95230104E-03-9.13119761E-03 1.18420916E-03
 4 3-6.14806521E-03-1.82749276E-02-1.40188896E-02 2.09971039E-02 8.19596467E-03
 4 4-5.05205238E-02 8.29417974E-03-3.65944622E-02-1.40951945E-03 4.01814341E-03
 4 5 7.49673317E-04-8.28380100E-04 3.63742305E-04-1.53007442E-04-7.60685668E-04
 4 6-2.48559407E-04-4.05938987E-03-4.88694396E-04-1.93100942E-03 1.27554165E-03
 4 7 1.61281718E-03-6.58137765E-03-2.52204258E-03 5.70661522E-04-1.11608634E-02
 4 8-3.10078812E-03-3.71023592E-02 1.39694941E-02-7.80863606E-03 5.15103909E-03
 4 9 6.20269076E-03 1.53642866E-02 4.52773683E-03 6.13179497E-03 1.02181809E-02
 4 10-3.92015429E-03-9.23607998E-04-3.38841977E-04-2.99255330E-05-2.28116526E-03
 4 11 3.09269001E-03-1.16951777E-03 4.63682105E-05 5.46909162E-04-1.06774145E-03
 4 12-5.90231395E-04 1.46820987E-04-7.31043797E-05 6.53799237E-05 6.06707118E-05
 5 1-1.17415144E-02-4.01724223E-01-4.67416540E-02-1.24980014E-01 8.16357036E-01
 5 2-7.43374093E-02 9.02776207E-02-1.79638634E-01-4.15248256E-02-1.14653100E-01
 5 3 5.09824935E-02-2.86831052E-02 2.16035427E-02-8.83011658E-02-6.64995895E-02
 5 4 1.25642916E-01 3.14246405E-02 9.34866126E-02-1.24905793E-02-4.81493715E-03
 5 5-4.96421473E-04-3.02422791E-03 3.07003994E-03-7.88163305E-04 6.61764076E-03
 5 6 8.88097885E-04 4.75208457E-04-1.26262487E-03 5.18238908E-04-1.23293722E-03
 5 7 1.44194604E-02-6.03968173E-03 6.27661768E-03 3.35797793E-02-1.72542119E-02
 5 8-7.23195622E-04 2.14035813E-03-2.11196020E-01 1.83584850E-01-1.54015302E-02
 5 9-9.10290694E-03-3.90677603E-02-9.49990451E-03 1.67918146E-02 1.75200150E-02
 5 10 5.12613769E-03 3.07334787E-04-1.37305904E-05-2.27915795E-04 2.69060244E-04
 5 11-2.96734260E-04-8.56045712E-03-1.73616714E-03-2.06982743E-03 5.33370694E-04
 5 12-4.33438503E-04 7.35226963E-04 1.89931710E-03-3.69034323E-04 3.98001762E-04
 6 1-5.06232542E-02 2.65667416E-02-1.60294352E-01 1.91385849E-02-7.43374093E-02
 6 2 8.97150168E-01 8.34909046E-02-1.12513818E-01-3.68918651E-01-1.12083117E-01
 6 3 5.16984251E-02-2.77442699E-02 3.27038627E-03-6.66412472E-02-4.48646004E-02
 6 4 6.04406659E-02 1.52161330E-02 4.24191111E-02-1.89412377E-03-3.26401100E-03
 6 5 2.16617941E-03-3.03796513E-03 1.18974970E-03-7.02577982E-05 9.79831061E-03
 6 6 1.73640719E-03 2.86681185E-03-1.41871103E-03-1.00163937E-04-1.29856745E-03
 6 7 2.31278359E-02-3.74091087E-02 5.57758732E-03-9.71471122E-03 2.78801112E-02
 6 8 1.10787639E-02 8.66395973E-03 1.87096178E-01-3.39087287E-01-7.50890253E-03
 6 9 5.23861247E-03 5.35991090E-03-2.46822948E-02-1.91357532E-02-2.69094018E-02
 6 10 5.79767616E-03-5.74131543E-04 4.17993185E-04 9.66219156E-05-1.19962441E-03
 6 11 1.67574607E-03-3.79245199E-03-7.78890091E-04-1.28807611E-04 4.87521759E-04
 6 12-4.45242195E-04 5.49797251E-04 4.41761866E-04-2.24560394E-04 5.44978158E-05
 7 1 9.35980109E-02-4.57368335E-02 2.57672390E-02-8.46310670E-02 9.02776207E-02
 7 2 8.34909046E-02 2.20145321E-01-1.05567448E-01-2.32427000E-01 9.74685803E-02
 7 3-8.27019516E-02 1.70369688E-02-5.06568696E-02 1.22386124E-01 5.61692819E-02
 7 4-6.99255349E-02-2.43175800E-02-6.90716847E-02 5.62409722E-03 8.99820750E-04
 7 5 7.78049664E-04 4.38142878E-03-1.10727754E-03 7.38554117E-04-3.50164738E-02
 7 6-1.84590269E-02 2.24512069E-03 2.53257754E-03 6.47472495E-03 1.81183950E-03
 7 7 3.24804799E-04 4.23281361E-03 7.41373064E-04-1.29441977E-02 1.40450803E-03
 7 8-4.41025602E-03 4.44395074E-03 2.26453899E-03 2.57265901E-03-8.47674266E-02
 7 9 1.09892060E-01 1.18700929E-02-7.77048692E-02-6.16443358E-02 1.04652998E-01
 7 10-1.55010617E-02 1.12663314E-03-4.29200537E-04-1.07296229E-03-9.02424583E-04
 7 11-5.83310861E-04 5.57719837E-03 1.02013696E-03 3.40639949E-04-1.03745139E-03
 7 12 4.10853820E-04-6.99379418E-04-8.35891972E-04 4.91201051E-05-5.96697303E-04
 8 1 3.32051218E-02-3.77032486E-02-3.96251813E-02 1.95230104E-03-1.79638634E-01
 8 2-1.12513818E-01-1.05567448E-01 8.97699819E-01-2.58381500E-02 4.51990017E-02
 8 3-6.98085659E-02 8.74713316E-03 9.02270022E-03 2.64214510E-02 1.37342047E-02
 8 4-2.33725405E-02-1.34069619E-02-2.63835034E-02 2.01699769E-03-3.73313066E-04
 8 5 3.49094371E-03 2.26657715E-03 3.38223494E-04 1.23176701E-03-1.85147343E-02
 8 6-4.57276065E-03-7.09603376E-03 1.93605348E-04-7.28568650E-04 3.14333892E-03
 8 7 4.30386361E-03-7.08208870E-03 7.72326572E-04-4.80032939E-03 1.75256332E-03
 8 8-1.48765989E-03 8.42875388E-04 1.43536180E-02 2.55067358E-02 1.21047547E-01
 8 9-4.34356458E-01-1.07873917E-02-5.65073886E-02-1.94060223E-01 1.65064250E-01
 8 10-1.17792060E-02 3.83491930E-05-8.66018775E-04-2.35021547E-04-1.03030766E-03
 8 11 1.64111431E-03 2.17885484E-03 1.78023331E-03 1.46361179E-03-5.77447265E-04
 8 12 1.25378814E-04-3.78082172E-04-8.74565914E-04 2.52360035E-04 1.79509768E-04
 9 1 8.99277495E-02-6.58710419E-02 1.50417121E-02-9.13119761E-03-4.15248256E-02
 9 2-3.68918651E-01-2.32427000E-01-2.58381500E-02 8.16655618E-01 1.39613171E-01
 9 3-5.97747679E-02-3.12591432E-02-3.50973422E-02 9.52726146E-02 4.36070658E-02
 9 4-6.72939293E-02-2.55821061E-02-6.92155238E-02 5.50473891E-03 1.70898545E-03
 9 5 1.10077129E-03-2.75615059E-04-2.68898129E-03 1.36013582E-04 3.04626447E-03
 9 6 1.82080638E-04 3.98709021E-03 5.70231484E-04-5.54130889E-04 5.64739029E-04
 9 7-5.01866209E-03 1.00058569E-04 5.00500039E-04-9.59611735E-03 1.11354074E-04
 9 8-1.85381559E-03-2.03874139E-03-2.42833297E-02-2.04077143E-02 2.23817455E-02
 9 9-1.34013186E-02-8.08166780E-02 1.24793933E-01 1.62894846E-01-3.08857262E-01
 9 10-2.84709914E-02-5.77540601E-04-3.14243500E-03-3.53990985E-04-1.79232658E-03
 9 11 1.51501935E-03 5.39712941E-03 1.50948393E-03 1.59374446E-03-8.49436144E-04
 9 12-7.76475218E-05-9.00887854E-05-6.80275511E-04 1.87902765E-04-1.42599228E-04
10 1-1.01662394E-01 5.93717006E-02-1.58099743E-02 1.18420916E-03-1.14653100E-01
10 2-1.12083117E-01 9.74685803E-02 4.51990017E-02 1.39613171E-01 1.52830656E-01
10 3 3.52181362E-02-1.13252318E-01-6.42065347E-02-1.16259418E-02-3.98436012E-02
10 4 7.33119931E-02 3.02597806E-02 8.52478170E-02-9.43279314E-03 4.92695016E-03
10 5-9.63198780E-03 8.35794764E-03-8.16182192E-03 8.94468707E-03-9.30995981E-02
10 6-1.85099437E-02 5.66044293E-02 1.59251984E-02-1.48747894E-02 2.57866369E-04
10 7 4.68305190E-03 7.86175300E-04-2.99673841E-04 9.49323372E-03 2.56336985E-04
10 8 2.49520613E-03-2.00408420E-03-6.15511297E-05 7.62922411E-04-1.83187346E-02
10 9-5.75127106E-03-3.30575144E-03-4.00010006E-02 1.98348057E-03-1.05270935E-02
10 10-4.43954884E-02 2.91780690E-03 1.06254264E-02 6.96404633E-03-5.99711419E-03
10 11 3.66336867E-04 2.60922201E-04-1.32936801E-03-1.29250059E-03 5.94535133E-05
10 12-3.08701891E-04-3.21394468E-04 2.57896009E-03 3.52834693E-04 1.45158814E-03
11 1 6.70346090E-02-4.02762931E-02 7.64065727E-03-6.14806521E-03 5.09824935E-02
11 2 5.16984251E-02-8.27019516E-02-6.98085659E-02-5.97747679E-02 3.52181362E-02
11 3 8.45877053E-01 1.26575211E-01 7.49841463E-02-4.04287017E-01 2.96063540E-02
11 4-4.59901572E-02-3.62513078E-02-7.12152005E-02 3.74369791E-03-1.82960663E-03
11 5 3.19796817E-03 4.71002116E-03 1.36085438E-02-1.02908701E-02-4.87036700E-02
11 6-1.50486459E-01 5.06067842E-02-2.26084910E-02-5.83731170E-02 3.61551734E-02
11 7-4.22253895E-03 7.97285690E-04 7.50498264E-04-6.37715399E-03 1.39693457E-03
11 8-2.00925253E-03 1.76297802E-04 1.50555582E-03-2.37458096E-03 2.31211424E-02
11 9 4.56569675E-03 3.31813080E-03-2.63094299E-03-8.03249011E-05-2.20065047E-03
11 10-9.81145858E-03-1.41884850E-01-1.46074258E-01 1.17583558E-02-1.36081162E-02
11 11-1.17181748E-02 5.54777909E-03 1.04574472E-03-1.20144607E-03-1.65938074E-05
11 12-1.18823729E-04 1.93139366E-04 2.91778193E-03-2.77450911E-03-2.88366090E-03
12 1-1.74637763E-02 8.29622182E-03-4.86536431E-03-1.82749276E-02-2.86831052E-02
12 2-2.77442699E-02 1.70369688E-02 8.74713316E-03-3.12591432E-02-1.13252318E-01
12 3 1.26575211E-01 8.18055859E-01 2.45550304E-02-4.70804858E-02-1.61880271E-01
12 4 2.51271682E-02-4.20521912E-02 1.94392752E-02-2.86581066E-03 5.63895882E-03
12 5-7.97181194E-05 2.07664353E-02 2.05064081E-02-2.09059576E-02 5.91568288E-02
12 6 4.91466723E-02-2.08697920E-01 1.20320308E-03 8.79747824E-03 1.86461813E-02
12 7 3.89976333E-04 1.15173996E-03 4.38326222E-04 8.41805411E-04 7.58061666E-04
12 8-8.59898294E-05-2.66069287E-06 7.04103567E-04-3.72899488E-04-1.23841178E-03
12 9 1.26843542E-06-2.56466145E-04 1.42017119E-02-6.09962199E-04 3.82162267E-03
12 10 2.64532072E-03-1.38975850E-01-4.02042020E-01-1.07290854E-02 3.28149872E-02
12 11 9.27079220E-03-2.16078354E-03-2.29610980E-03-8.62510204E-03-1.40627321E-03
12 12 3.39038191E-04 3.15792238E-04 1.46929903E-03-3.77949562E-03-3.17244827E-03
13 1-2.42333324E-03-4.26523391E-03-1.77389960E-02-1.40188896E-02 2.16035427E-02
13 2 3.27038627E-03-5.06568696E-02 9.02270022E-03-3.50973422E-02-6.42065347E-02
13 3 7.49841463E-02 2.45550304E-02 2.48637640E-01-8.51138858E-02-4.10827314E-02
13 4-7.81154671E-02 1.12900836E-02 6.06937851E-03 6.89271226E-04-3.07496181E-03
13 5 2.12059039E-02-2.78937893E-04 2.65828848E-03 3.01393183E-03 3.25221604E-03
13 6-1.20718222E-02-6.77511274E-03-1.62384716E-03-3.55568444E-03 3.98046694E-03
13 7-3.40606567E-03-1.21530528E-03-4.78544085E-04-1.03670829E-03-2.57867915E-03
13 8-3.76427114E-03 5.30981495E-05-2.52281617E-03 3.67606862E-03-1.68658183E-03
13 9 6.15688114E-04 4.48336670E-04 2.35812222E-03 4.07293298E-03 1.81141308E-03
13 10-2.26769256E-04-4.49067392E-03-2.49442644E-03-4.11999265E-02-8.82430740E-03
13 11 2.25285513E-02 3.88514811E-03 5.17546701E-03 1.50482511E-02 2.88634709E-05
13 12-1.99857869E-03 1.71804730E-03-2.38084609E-05 2.89726215E-04 1.05039302E-04
14 1-1.14688833E-01 4.72743823E-02-2.77105427E-02 2.09971039E-02-8.83011658E-02
14 2-6.66412472E-02 1.22386124E-01 2.64214510E-02 9.52726146E-02-1.16259418E-02
14 3-4.04287017E-01-4.70804858E-02-8.51138858E-02 8.37311720E-01-9.94966442E-02
14 4 8.68085381E-02-1.70695547E-01-3.49327698E-02-7.17963020E-03 2.05909262E-02
14 5 1.68028999E-02 1.07895409E-03-6.50141408E-04-2.74066412E-03 1.86491353E-02
14 6-3.33488172E-02 1.82243033E-02-1.97858526E-03 4.49923940E-03-7.39235007E-04
14 7 3.78750374E-03 4.64488077E-04-5.06081785E-04 9.33472587E-03 7.71089476E-04
14 8 4.86631707E-04 1.91749961E-04 3.46484418E-04-4.43304760E-04-6.20875067E-03
14 9-1.97512510E-03-9.19758682E-04-1.55136810E-02 1.30695129E-03-3.74194646E-03
14 10 1.57307310E-02-6.70513235E-03 7.02113325E-03-2.01365820E-02-2.20196291E-01
14 11 1.86124157E-01-1.52842149E-02-8.23816199E-03-4.12813642E-02-2.12179806E-03
14 12-4.32862521E-03 3.81401296E-03 8.85790359E-04-2.62454177E-04-1.51031086E-03
15 1-1.16293288E-01 4.88385247E-02-2.88912936E-02 8.19596467E-03-6.64995895E-02
15 2-4.48646004E-02 5.61692819E-02 1.37342047E-02 4.36070658E-02-3.98436012E-02
15 3 2.96063540E-02-1.61880271E-01-4.10827314E-02-9.94966442E-02 9.06885775E-01
15 4 9.26847625E-02-1.03266177E-01-3.70250299E-01-9.94556334E-03 5.02244055E-04
15 5-4.23904756E-02-7.53078203E-05-6.13485261E-03 1.04681358E-03-1.18777837E-02
15 6 2.32658035E-02 1.64201172E-02 4.35620811E-03 6.48423444E-03-6.05521557E-03
15 7 5.00018012E-03-9.49531335E-05-3.73019418E-04 1.22101406E-02 3.23105955E-04
15 8 4.13635258E-03-6.72966187E-04-1.12749106E-03 1.41612956E-03-2.38829559E-03
15 9-6.85240913E-04 2.23111690E-04-5.06104069E-03-1.09170202E-03-7.47355755E-05
15 10 2.10452629E-02-3.86298484E-02 6.80194445E-03 3.69211105E-02 1.89598883E-01
15 11-3.28603527E-01-1.07178559E-02 4.19651046E-03 3.44275673E-03 8.90007993E-04
15 12 1.45385350E-03-7.75028556E-04 4.84701499E-04-9.77981956E-04 1.79121483E-04
16 1 1.09778388E-01-8.99227301E-02 2.59956795E-02-5.05205238E-02 1.25642916E-01
16 2 6.04406659E-02-6.99255349E-02-2.33725405E-02-6.72939293E-02 7.33119931E-02
16 3-4.59901572E-02 2.51271682E-02-7.81154671E-02 8.68085381E-02 9.26847625E-02
16 4 2.17659754E-01-1.25084442E-01-2.10902197E-01-9.84115927E-02-1.91981034E-02
16 5 6.23931584E-02 9.03658848E-03-1.94681271E-02-2.29881467E-03-1.75462849E-02
16 6 8.69367224E-03-8.51866871E-03 2.42915725E-03-3.98076393E-03 2.02410339E-03
16 7-1.25321232E-02 1.49891813E-04 7.81674595E-04-3.41515621E-02-1.35047940E-03
16 8-1.09979748E-02-1.52790895E-03-8.91929096E-04-9.24789550E-04 3.31036193E-03
16 9 2.26587656E-04-4.99787389E-04 8.27282217E-03 2.42668303E-05 1.56251263E-03
16 10 1.02470614E-03 3.77387325E-03 7.41271182E-04 5.88655466E-03 3.92150067E-03
16 11 3.78690946E-03-7.95019277E-02 1.07622849E-01 1.57319307E-02 1.69494350E-03
16 12-8.25015375E-03 4.75181437E-03 9.82908245E-03 6.47473536E-04 5.41275893E-03
17 1 5.71506910E-02-7.49750259E-02 1.10769942E-02 8.29417974E-03 3.14246405E-02
17 2 1.52161330E-02-2.43175800E-02-1.34069619E-02-2.55821061E-02 3.02597806E-02
17 3-3.62513078E-02-4.20521912E-02 1.12900836E-02-1.70695547E-01-1.03266177E-01
17 4-1.25084442E-01 9.00972443E-01 4.32043217E-02-3.85366884E-02-1.94565915E-01
17 5 8.38043229E-02-1.86748213E-02-3.06289709E-02 3.42652746E-02-4.38386490E-04
17 6 5.25455891E-03-3.04998641E-03-8.21190294E-05-9.93439172E-04 2.10323863E-03
17 7-1.09221710E-02-7.32808613E-04-5.96073144E-05-2.21737646E-02-1.55951545E-03
17 8-6.96953125E-03-4.79010862E-04-1.04660815E-03 1.27147693E-03 1.85617492E-03
17 9 1.53784605E-03 1.09477758E-03 3.52018124E-03-7.51573854E-05 2.26733549E-03
17 10 2.18809542E-03-7.93313693E-03 1.81244134E-03 5.20202357E-05 1.41784019E-02
17 11 2.63558295E-02 1.20889905E-01-4.29408905E-01-2.40020298E-02 8.75300963E-03
17 12 1.29871214E-02-1.45150549E-02-3.54396153E-03-4.08081606E-03-2.97673456E-03
18 1 1.27248894E-01-5.53487832E-02-2.96087870E-02-3.65944622E-02 9.34866126E-02
18 2 4.24191111E-02-6.90716847E-02-2.63835034E-02-6.92155238E-02 8.52478170E-02
18 3-7.12152005E-02 1.94392752E-02 6.06937851E-03-3.49327698E-02-3.70250299E-01
18 4-2.10902197E-01 4.32043217E-02 7.15571296E-01 9.17192849E-02 6.92937812E-02
18 5-2.13866222E-01-5.47237754E-03 1.18618183E-02 9.26564220E-03-1.02076235E-02
18 6 1.86097869E-03-5.98898805E-03 1.37736787E-03-8.64894209E-04 4.75694928E-04
18 7-2.62781666E-02-2.01015172E-03-8.77236619E-04 1.58646140E-03-1.47527106E-03
18 8 5.69118970E-04-1.43517859E-04-1.89653538E-03 2.11236287E-03 4.44585401E-03
18 9 2.04251127E-03 1.06010653E-03 8.06332241E-03 2.02339396E-04 3.62480672E-03
18 10-5.75966388E-03 1.13904734E-03 1.36241489E-04-1.85214500E-03-2.14895259E-02
18 11-1.67201739E-02 2.61959008E-02-2.84559350E-02-7.70772110E-02 1.01059346E-02
18 12 2.42304566E-02-1.21125174E-02 4.22330697E-03-3.24784486E-03 1.04156742E-03
19 1-3.89201317E-02-7.59879387E-03 1.23130623E-02-1.40951945E-03-1.24905793E-02
19 2-1.89412377E-03 5.62409722E-03 2.01699769E-03 5.50473891E-03-9.43279314E-03
19 3 3.74369791E-03-2.86581066E-03 6.89271226E-04-7.17963020E-03-9.94556334E-03
19 4-9.84115927E-02-3.85366884E-02 9.17192849E-02 3.10603896E-01 4.36356480E-02
19 5-2.26178781E-01-9.28234287E-02-3.87753601E-02 3.34180065E-02 1.27283251E-02
19 6 1.10384942E-02-7.91287748E-03-1.86082417E-03 3.88675415E-03 5.77850600E-03
19 7 2.09674705E-03 3.35499757E-04 7.17402535E-04-2.55360641E-03 1.32008526E-04
19 8-6.56849872E-04-2.57746921E-04-1.26665244E-04 5.02646442E-04-2.94948179E-04
19 9-9.18394832E-05-1.06720541E-04-5.36975271E-04-9.08599334E-05-1.99817730E-04
19 10-1.96415043E-05-5.88473026E-04-6.08311014E-06 5.73953079E-03-1.02109028E-03
19 11-1.20595732E-03 4.07606488E-03 7.23829394E-03-1.14663663E-02-1.02393589E-01
19 12 5.24743282E-02 1.14918227E-01 7.35619436E-03-1.80019729E-02-2.43274412E-03
20 1-2.09620323E-02 3.82068891E-04 6.87552308E-05 4.01814341E-03-4.81493715E-03
20 2-3.26401100E-03 8.99820750E-04-3.73313066E-04 1.70898545E-03 4.92695016E-03
20 3-1.82960663E-03 5.63895882E-03-3.07496181E-03 2.05909262E-02 5.02244055E-04
20 4-1.91981034E-02-1.94565915E-01 6.92937812E-02 4.36356480E-02 1.15687514E + 00
20 5 1.48675755E-01-5.59643275E-02-7.64994953E-01-6.11787934E-02 8.62094732E-03
20 6-3.51674141E-02-3.13482520E-02-7.69526317E-04 1.26809187E-02 3.17187369E-03
20 7 3.08114578E-04-5.90492276E-05 4.43574890E-04 1.13402278E-03 2.37200736E-04
20 8 6.07247232E-04 7.83315881E-05 2.71195937E-04 3.23645683E-05 6.98713874E-04
20 9 4.67642250E-04 5.58298558E-06-1.57097180E-04-1.88557916E-04 2.26757339E-04
20 10-1.45369506E-03-9.14619657E-04 8.45663489E-04-1.28436364E-03-2.73001601E-03
20 11-3.94670408E-03-2.13504707E-02-1.44800035E-02 3.01059049E-02 5.47696354E-02
20 12-1.56148952E-01-1.50622678E-01 5.12437595E-03-1.52379781E-02-1.09669718E-02
21 1 6.10065389E-03-2.40973862E-03 5.78777377E-03 7.49673317E-04-4.96421473E-04
21 2 2.16617941E-03 7.78049664E-04 3.49094371E-03 1.10077129E-03-9.63198780E-03
21 3 3.19796817E-03-7.97181194E-05 2.12059039E-02 1.68028999E-02-4.23904756E-02
21 4 6.23931584E-02 8.38043229E-02-2.13866222E-01-2.26178781E-01 1.48675755E-01
21 5 7.41222731E-01 3.14179493E-02-8.89024446E-02-1.59634246E-01-6.23262767E-03
21 6-4.13295802E-02 1.36548394E-02 5.02160868E-03-2.50391651E-03-1.00237338E-02
21 7-6.57935320E-04-1.29282697E-04 5.98730541E-04-2.85448859E-03 1.94225225E-04
21 8-9.56757659E-04-2.75178171E-04 1.88335169E-04-2.75847098E-04-1.24084775E-03
21 9-5.88634651E-04-1.56782561E-04 8.05022113E-05 1.17689707E-04-3.94002966E-04
21 10-2.97307200E-04 9.89254311E-04 1.67410371E-05 2.54960731E-03-1.89219865E-03
21 11-3.90294486E-03 1.06286826E-04-5.64882752E-03 5.16850577E-03 1.15164042E-01
21 12-1.44890967E-01-3.48651297E-01 1.80145329E-03 3.13302003E-02 1.06161187E-02
22 1-3.53057133E-03 1.57181957E-03 5.97251865E-04-8.28380100E-04-3.02422791E-03
22 2-3.03796513E-03 4.38142878E-03 2.26657715E-03-2.75615059E-04 8.35794764E-03
22 3 4.71002116E-03 2.07664353E-02-2.78937893E-04 1.07895409E-03-7.53078203E-05
22 4 9.03658848E-03-1.86748213E-02-5.47237754E-03-9.28234287E-02-5.59643275E-02
22 5 3.14179493E-02 2.82333620E-01 1.33124733E-01-2.44768845E-01-1.21907421E-01
22 6 1.52435627E-02 6.65499781E-02 2.19265909E-02 4.71715462E-03 3.86944843E-03
22 7-9.58255341E-05 7.61400333E-05 1.22787759E-04 3.55763647E-04 1.72531906E-04
22 8 9.73176610E-06-1.39877810E-03-4.68681064E-04 6.59935355E-04-2.85371122E-04
22 9 3.69043747E-05 2.02269929E-05 4.54107048E-04 9.55717750E-07 2.59886274E-04
22 10 4.62195948E-05-2.62458009E-03 1.41082006E-03-1.04388464E-04-2.89716287E-04
22 11-1.78170269E-04-9.13114470E-04-7.28322001E-04 2.90237533E-03 1.41329038E-02
22 12 1.38966511E-02 3.69345823E-03-1.18859663E-01-9.51218587E-02 1.21527441E-01
23 1 1.06681932E-02-2.47304985E-03 2.58196334E-03 3.63742305E-04 3.07003994E-03
23 2 1.18974970E-03-1.10727754E-03 3.38223494E-04-2.68898129E-03-8.16182192E-03
23 3 1.36085438E-02 2.05064081E-02 2.65828848E-03-6.50141408E-04-6.13485261E-03
23 4-1.94681271E-02-3.06289709E-02 1.18618183E-02-3.87753601E-02-7.64994953E-01
23 5-8.89024446E-02 1.33124733E-01 1.19020658E + 00-2.65244608E-02 8.67910546E-03
23 6-1.27772234E-01-2.95651969E-02 1.92699400E-02-5.44988955E-02-5.96792784E-02
23 7-2.38644090E-06 1.53152035E-04 2.68825324E-05-1.38256642E-03 1.00036715E-04
23 8-5.35285427E-04-2.61377654E-04 3.09756513E-05-8.19328343E-05-4.51830169E-04
23 9-1.91869348E-04 1.31017609E-04 3.84589963E-04 1.58139294E-04-3.02194766E-05
23 10-1.66757667E-03-3.68252505E-03 2.89671764E-03 2.87908268E-04 6.37474639E-04
23 11-1.87238362E-04 4.75741711E-04 2.65695065E-04 2.16113095E-03-5.74626308E-03
23 12-9.08797839E-03 8.44513239E-03-9.88870670E-02-2.14588150E-01 1.64529441E-01
24 1-3.42691061E-05 5.39542981E-04 5.10097165E-05-1.53007442E-04-7.88163305E-04
24 2-7.02577982E-05 7.38554117E-04 1.23176701E-03 1.36013582E-04 8.94468707E-03
24 3-1.02908701E-02-2.09059576E-02 3.01393183E-03-2.74066412E-03 1.04681358E-03
24 4-2.29881467E-03 3.42652746E-02 9.26564220E-03 3.34180065E-02-6.11787934E-02
24 5-1.59634246E-01-2.44768845E-01-2.65244608E-02 6.80322435E-01 6.74590076E-02
24 6-3.02131867E-02-2.48469506E-01 6.26716714E-03-3.34336821E-02 2.69480466E-03
24 7 2.53931079E-04 1.08693840E-04-5.33432703E-05 1.94769342E-04 4.24405835E-06
24 8 1.99635555E-04 2.08879946E-04-2.76171621E-05 7.97250276E-05-3.38923007E-04
24 9-7.51567223E-05-1.95816656E-05 2.00877849E-04 2.45846841E-05 1.98841338E-04
24 10 2.49670054E-03 2.61130577E-03-8.82740920E-04 4.91629049E-04-2.73511321E-04
24 11 7.52540497E-04 3.07202609E-03 2.77965531E-03-4.48484092E-03-7.45127743E-04
24 12-3.66447843E-02 8.07357091E-03 1.21578777E-01 1.60625478E-01-2.68300752E-01
25 1 7.52819712E-03-5.92210472E-03 2.96738281E-03-7.60685668E-04 6.61764076E-03
25 2 9.79831061E-03-3.50164738E-02-1.85147343E-02 3.04626447E-03-9.30995981E-02
25 3-4.87036700E-02 5.91568288E-02 3.25221604E-03 1.86491353E-02-1.18777837E-02
25 4-1.75462849E-02-4.38386490E-04-1.02076235E-02 1.27283251E-02 8.62094732E-03
25 5-6.23262767E-03-1.21907421E-01 8.67910546E-03 6.74590076E-02 3.07528553E-01
25 6 5.17617206E-02-1.43332367E-01-7.59827405E-02-3.37453233E-02 1.09903261E-02
25 7-1.80454771E-04 2.18407290E-04 9.19574100E-05-1.38079357E-03 9.65058859E-05
25 8-3.13510035E-04-1.05219450E-04-1.03712736E-04-2.55875772E-04 7.65249383E-04
25 9-8.25143786E-04 6.15316921E-04-2.32879898E-03 5.96093455E-05-9.91185307E-04
25 10 2.56345377E-06 1.05836887E-03-2.06697425E-03 4.47510909E-03 5.90971306E-03
25 11 2.58122172E-03-1.64468386E-04 3.20839776E-05 6.51644655E-04 1.31967270E-02
25 12-3.29410824E-03 7.67692742E-03-1.00366529E-03 9.84390283E-03 1.02423814E-02
26 1-3.25215917E-03-6.72216603E-04 6.81211509E-04-2.48559407E-04 8.88097885E-04
26 2 1.73640719E-03-1.84590269E-02-4.57276065E-03 1.82080638E-04-1.85099437E-02
26 3-1.50486459E-01 4.91466723E-02-1.20718222E-02-3.33488172E-02 2.32658035E-02
26 4 8.69367224E-03 5.25455891E-03 1.86097869E-03 1.10384942E-02-3.51674141E-02
26 5-4.13295802E-02 1.52435627E-02-1.27772234E-01-3.02131867E-02 5.17617206E-02
26 6 1.28306794E + 00 1.10529171E-01-3.00784967E-02-9.60509505E-01-1.21450718E-01
26 7 7.53002132E-04 2.52084487E-05-1.32273714E-04 2.25634647E-04-1.63921792E-04
26 8 2.24432314E-04 2.14968337E-04 1.75574056E-04 1.66475989E-04 2.58155885E-03
26 9 8.55475987E-04-3.13195400E-04 8.45091162E-04-7.53676517E-04 6.44521268E-04
26 10 5.01093503E-03 1.45563973E-02-1.36362690E-02-1.74525504E-03-3.13971208E-03
26 11-1.87597910E-03 1.04915705E-04 7.66380269E-04 1.64214648E-04-3.13891260E-03
26 12-3.91320350E-03 1.83705662E-04-8.96992187E-03 1.49108908E-02 2.01650548E-02
27 1 2.13298435E-03 4.30277842E-04-5.13999762E-03-4.05938987E-03 4.75208457E-04
27 2 2.86681185E-03 2.24512069E-03-7.09603376E-03 3.98709021E-03 5.66044293E-02
27 3 5.06067842E-02-2.08697920E-01-6.77511274E-03 1.82243033E-02 1.64201172E-02
27 4-8.51866871E-03-3.04998641E-03-5.98898805E-03-7.91287748E-03-3.13482520E-02
27 5 1.36548394E-02 6.65499781E-02-2.95651969E-02-2.48469506E-01-1.43332367E-01
27 6 1.10529171E-01 5.83054843E-01 9.95382772E-03-1.17756455E-01-1.18961726E-01
27 7-1.46628673E-03-5.31364924E-04 2.41463339E-05 8.73885866E-04 1.13181466E-04
27 8-5.17336645E-05 6.27250787E-05-3.41135467E-04 3.33559723E-05 1.25236832E-03
27 9-4.57971754E-05 6.62263566E-05-2.74643774E-03 1.64105068E-04-7.69031334E-04
27 10 1.37429679E-02 2.63123240E-02-1.69431249E-02 4.48519398E-03-3.75862046E-03
27 11-1.26648887E-03 1.58642148E-03 1.16616738E-03-2.21673720E-03 8.71025914E-03
27 12 2.38623683E-03 2.75252743E-04 6.61028068E-03-1.69139857E-02-1.18782211E-02
28 1-1.47335772E-03 1.38058167E-03-7.83899582E-04-4.88694396E-04-1.26262487E-03
28 2-1.41871103E-03 2.53257754E-03 1.93605348E-04 5.70231484E-04 1.59251984E-02
28 3-2.26084910E-02 1.20320308E-03-1.62384716E-03-1.97858526E-03 4.35620811E-03
28 4 2.42915725E-03-8.21190294E-05 1.37736787E-03-1.86082417E-03-7.69526317E-04
28 5 5.02160868E-03 2.19265909E-02 1.92699400E-02 6.26716714E-03-7.59827405E-02
28 6-3.00784967E-02 9.95382772E-03 3.98056905E-02 3.72992384E-02-2.16988397E-02
28 7 1.34153535E-05-9.15366179E-05-1.33446883E-05 3.32281994E-04-3.43723384E-05
28 8 7.19582165E-05 1.68509435E-05-2.11088543E-05 1.32249307E-04 7.79756381E-04
28 9 3.51545423E-04 1.53674463E-07 1.05822326E-04-2.71957152E-04 9.57849719E-05
28 10-4.64975997E-04 2.86789068E-04-7.58672578E-04-9.65139868E-05-1.52429199E-03
28 11-6.86770750E-04 1.26761768E-04 8.55977099E-05-3.04537578E-04-1.69524904E-03
28 12 9.58919271E-04-1.33724832E-03-3.06485411E-04-1.10341282E-03-2.04693163E-03
29 1 2.75284961E-03 5.32926760E-04 4.75460886E-04-1.93100942E-03 5.18238908E-04
29 2-1.00163937E-04 6.47472495E-03-7.28568650E-04-5.54130889E-04-1.48747894E-02
29 3-5.83731170E-02 8.79747824E-03-3.55568444E-03 4.49923940E-03 6.48423444E-03
29 4-3.98076393E-03-9.93439172E-04-8.64894209E-04 3.88675415E-03 1.26809187E-02
29 5-2.50391651E-03 4.71715462E-03-5.44988955E-02-3.34336821E-02-3.37453233E-02
29 6-9.60509505E-01-1.17756455E-01 3.72992384E-02 1.05687140E + 00 1.39414658E-01
29 7-2.10944791E-04-7.75089301E-05 6.30995853E-05-2.80223415E-04-7.08465290E-06
29 8-1.92719341E-04 1.28057032E-04-2.38504725E-04 1.67842241E-04-2.56528491E-04
29 9 1.97508242E-05 1.18662808E-04-4.97808939E-04 5.02492828E-04-2.63518012E-04
29 10 2.04729977E-03 1.94970856E-03-2.09744627E-03 1.53916335E-03-1.68880767E-03
29 11-1.01652113E-04 4.60290796E-04 1.11075066E-04 8.86281003E-05 4.30660884E-04
29 12-1.58777211E-03 2.41861367E-04-4.02794114E-04 1.01702382E-03 2.01711737E-03