 $BASIS GBASIS=STO NGAUSS=3 $END
 $CONTRL SCFTYP=RHF RUNTYP=SADPOINT ICHARG=1 MULT=1 $END
 $STATPT hssend=.t. OPTTOL=0.0005 NSTEP=50 $END
 $STATPT HESS=calc ihrep=5 $END
 $FORCE nvib=2 $END
 $ZMAT DLC=.t. auto=.t. nonvdw(1)=6,5,4,5 $END
!$ZMAT IFZMAT(1)=1,6,5,1,4,5 fvalue(1)=2.00,2.00 $END

 $DATA 
Title
C1
C     6.0    -0.79306746    -1.21827221     0.13397336
C     6.0    -1.60846269     0.00474341    -0.36928016
C     6.0    -0.81522101     1.26503003     0.07385489
C     6.0     0.64461660    -0.69975555     0.28655112
Br    35.0     1.40889919     0.00570833    -1.45051885
C     6.0     0.63140219     0.78018802     0.25087568
H     1.0    -0.85268760    -2.08351994    -0.52493483
H     1.0    -1.10609007    -1.52935994     1.13299692
H     1.0    -2.61127687     0.00594432     0.04980627
H     1.0    -1.69734907    -0.02229528    -1.45328724
H     1.0    -1.13433444     1.61863613     1.05673122
H     1.0    -0.88983822     2.09612203    -0.62628132
H     1.0     1.41993439    -1.26396251     0.81446910
H     1.0     1.39622486     1.38290310     0.75081378
 $END
