!   File created by the GAMESS Input Deck Generator Plugin for Avogadro
 $BASIS GBASIS=STO NGAUSS=3 $END
 $CONTRL SCFTYP=ROHF RUNTYP=ENERGY MULT=2 $END

 $DATA 
Title
C1
C     6.0    -0.73193    -1.13707    -0.16129
C     6.0    -1.64271     0.04990     0.07103
C     6.0    -0.74776     1.20589    -0.29852
C     6.0     0.59715    -0.63283     0.39443
Br    35.0     1.85060     0.04871    -1.00677
C     6.0     0.59641     0.83387     0.33802
H     1.0    -0.62090    -1.36834    -1.24373
H     1.0    -1.12213    -2.02801     0.37476
H     1.0    -1.85693     0.12059     1.16291
H     1.0    -2.60633     0.00751    -0.47947
H     1.0    -1.13946     2.18910     0.03728
H     1.0    -0.64045     1.22991    -1.40653
H     1.0     1.28281    -1.30645     0.94979
H     1.0     0.77438     1.12933     1.39386
 $END
