!File created by the GAMESS Input Deck Generator Plugin for Avogadro
 $BASIS GBASIS=STO NGAUSS=3 $END
 $CONTRL SCFTYP=RHF RUNTYP=OPTIMIZE NZVAR=1 mult=1  ICHARG=0 $END
 $STATPT hssend=.t. OPTTOL=0.0005 NSTEP=50 $END
 $STATPT HESS=calc ihrep=5 $END
 $FORCE nvib=2 $END
 $ZMAT DLC=.t. auto=.t. nonvdw(1)=17,4,19,5,17,19 $END
 $ZMAT IFZMAT(1)=1,17,4,1,19,5,1,17,19 fvalue(1)=2.08,2.01,1.98 $END}

 $DATA 
Title
C1
C     6.0    -0.20261     1.03840     0.32390
C     6.0    -1.11893    -0.11433    -0.08658
C     6.0    -0.27275    -1.32156     0.27014
C     6.0     1.17610     0.50439    -0.06003
C     6.0     1.05811    -0.84137    -0.22787
C     6.0     2.02541    -1.67197    -1.02940
H     1.0    -0.26643     1.18563     1.42360
H     1.0    -0.47919     1.98235    -0.19136
H     1.0    -1.23130    -0.09554    -1.19642
H     1.0    -2.13076    -0.08784     0.37030
H     1.0    -0.62510    -2.27654    -0.17368
H     1.0    -0.24389    -1.41113     1.37939
H     1.0     1.92621     1.03152    -0.68045
H     1.0     1.66822    -2.72070    -1.09664
H     1.0     3.02977    -1.66481    -0.55721
H     1.0     2.10970    -1.25801    -2.05606
B     5.0     2.36443     0.78583     1.62275
H     1.0     3.43979     1.17622     1.31659
H     1.0     2.05018    -1.16761     1.48708
H     1.0     1.87310     1.33380     2.54921
 $END
