!File created by the GAMESS Input Deck Generator Plugin for Avogadro
 $BASIS GBASIS=STO NGAUSS=3 $END
 $CONTRL SCFTYP=RHF RUNTYP=IRC NZVAR=1 mult=1  ICHARG=0 $END
 $STATPT hssend=.t. OPTTOL=0.0005 NSTEP=50 $END
 $STATPT HESS=READ ihrep=5 $END
 $FORCE nvib=2 $END
 $ZMAT DLC=.t. auto=.t. nonvdw(1)=17,4,19,5,17,19,5,4 $END
!$ZMAT IFZMAT(1)=1,17,4,1,19,5,1,17,19, fvalue(1)=2.08,2.01,1.98 $END
 $irc npoint=50 saddle=.t. tsengy=.t. forwrd=.f. opttol=0.0005 stride=0.2 $end

 $DATA 
Title
C1
C     6.0    -0.25397605     1.18583977     0.11529635
C     6.0    -1.13683391    -0.09443218     0.16169581
C     6.0    -0.16648531    -1.29597986     0.31805751
C     6.0     1.18116105     0.67527074    -0.10013091
C     6.0     1.21069956    -0.73709011    -0.10319000
C     6.0     2.18744636    -1.58876896    -0.91501051
H     1.0    -0.33947918     1.75803065     1.03532457
H     1.0    -0.55640280     1.83458257    -0.70429343
H     1.0    -1.68693936    -0.19559251    -0.77072740
H     1.0    -1.86247838    -0.06292989     0.96962255
H     1.0    -0.43737876    -2.13111305    -0.32402828
H     1.0    -0.13549881    -1.65816283     1.34225166
H     1.0     1.82986331     1.22900653    -0.76309210
H     1.0     2.31467843    -2.57130909    -0.47051325
H     1.0     3.15255380    -1.09749115    -0.98644209
H     1.0     1.77729452    -1.70895839    -1.91598499
B     5.0     2.02233982     0.22461648     1.33981586
H     1.0     3.10538507     0.60072446     1.21130991
H     1.0     2.07688546    -0.96867871     1.40072322
H     1.0     1.37180400     0.56584388     2.22892547
 $END
 $HESS
ENERGY IS     -256.3333982065 E(NUC) IS      309.8604851651
 1  1 6.45746009E-01-6.59327141E-02 2.12164954E-02-1.66010094E-01-8.75468625E-02
 1  2-1.01646805E-03 1.55368386E-02 1.34780179E-02 2.53941446E-03-2.75797040E-01
 1  3 6.88563322E-02 3.81873421E-02-3.83614077E-03 1.67677571E-02-1.65002135E-03
 1  4-1.01795013E-03-2.62824343E-03 1.22471436E-03-6.95187027E-02 1.46581343E-02
 1  5 2.32955962E-02-1.00963362E-01 6.41596494E-02-7.92130543E-02-7.48562337E-03
 1  6-1.74564931E-02 5.40977640E-03-9.47300559E-03-2.23675859E-02-5.15849022E-03
 1  7-4.72886342E-03 2.41422599E-03-7.22902467E-04-1.22608746E-03-1.45657190E-04
 1  8 7.51526822E-04-9.60535740E-03 1.09180048E-02-4.33171963E-03 7.21943065E-04
 1  9-3.77656455E-04-4.85023750E-04-6.24496014E-05-5.60396056E-05 7.77232545E-05
 1 10 2.03300996E-04-4.67953222E-05-4.40464714E-05-1.18286205E-02 4.76656326E-03
 1 11-4.07223932E-03-2.39261084E-04 4.72085344E-04-6.38445193E-04-3.11799659E-04
 1 12 4.75458573E-04 2.38327118E-03-1.03670065E-04-4.08272221E-04 2.24653725E-03
 2  1-6.59327141E-02 8.11527883E-01 3.11615228E-03-8.34613992E-02-2.31922879E-01
 2  2-9.25654699E-04-9.19735961E-03-3.53140450E-02-3.20716492E-03 5.32941855E-02
 2  3-1.31395547E-01-6.65620453E-05 3.77035734E-02-2.35402174E-02-5.56441322E-03
 2  4-1.56999130E-03-4.28988526E-03 2.92762845E-03 1.54698411E-02-1.80817760E-01
 2  5-1.69500140E-01 6.40370851E-02-2.08025809E-01 1.68855994E-01-2.22863676E-03
 2  6-5.66934290E-03 3.39051791E-03 3.33561585E-03 2.91812843E-03-2.17140711E-03
 2  7 2.04748154E-03-2.36733904E-03 1.99376560E-03 8.30782364E-04-5.48251903E-04
 2  8-1.92446358E-04-1.75419520E-02 1.11017403E-02 1.61346361E-03 7.69171406E-04
 2  9-5.75492326E-04-1.17107049E-03-3.46880920E-04 2.04015010E-04 2.70309006E-04
 2 10 2.16336589E-05-1.55499532E-05 5.74560226E-05 1.48150803E-03-2.85927637E-05
 2 11 2.30235798E-03-1.59946417E-05 4.37205007E-05-6.62075110E-04-2.50113240E-04
 2 12-1.29109714E-03-1.24004059E-03 1.55402811E-03 6.45429573E-06 1.73343504E-04
 3  1 2.12164954E-02 3.11615228E-03 8.73488214E-01 1.22554571E-04 7.36725850E-03
 3  2-1.21777821E-01 3.28978444E-03 8.94123297E-03-2.46163525E-03 3.24710599E-02
 3  3 3.76992576E-03-1.01036897E-01 1.07051199E-02-1.99734016E-02 1.22661912E-03
 3  4 2.83562121E-03-3.08524438E-03 4.61646550E-03 2.38715907E-02-1.69927105E-01
 3  5-3.60064711E-01-8.01925987E-02 1.69235941E-01-2.99969336E-01-1.96528613E-02
 3  6-3.26088185E-02 7.25278900E-03 1.40608273E-02 2.67348522E-02 4.82323341E-03
 3  7 3.96145556E-05-1.34386145E-04 8.63133489E-05 1.81726645E-05 4.71407819E-04
 3  8-2.23481105E-04 1.55654801E-02-1.18248336E-02-3.84360687E-04 5.91614825E-04
 3  9-6.26468603E-04-6.36619078E-04-2.04210056E-05 8.01000394E-05-1.57668772E-04
 3 10-8.69948994E-04 7.84553783E-04 3.21722644E-04-1.67371217E-02 1.87525442E-02
 3 11-2.11342283E-04-6.32523379E-04 7.42211440E-04-8.94681426E-04-5.27440188E-03
 3 12-7.10260468E-04-5.69314970E-03-1.40819214E-03-1.10535765E-03 1.69682318E-03
 4  1-1.66010094E-01-8.34613992E-02 1.22554571E-04 8.28400864E-01 5.75156144E-03
 4  2-2.53520377E-02-1.81719335E-01 8.75909271E-02-1.59879413E-02-3.25971224E-02
 4  3-2.39372667E-02 6.82799932E-03-3.62308397E-02 2.03151569E-02 2.74869655E-03
 4  4-2.42375018E-03-2.88787786E-03-2.74821016E-04 8.57742462E-05 1.39908525E-03
 4  5 1.07783428E-03 8.02684128E-03 9.75412453E-03-9.05829359E-04-1.75128260E-01
 4  6-1.81726667E-02-1.60647507E-01-2.44955211E-01 7.17545733E-03 1.91561267E-01
 4  7 9.36530527E-03-8.88378093E-03 6.50163048E-04-1.66480928E-03 1.73349808E-03
 4  8 1.20165156E-03-3.59435422E-03 2.80246467E-03-1.36956515E-03 1.72406621E-04
 4  9-2.58107022E-04-2.10496790E-04-3.85728162E-04 6.66742612E-04 6.91360543E-04
 4 10-2.20087024E-05-3.97832427E-05-8.61166813E-06-1.22520045E-03 1.09656245E-03
 4 11 3.40417530E-04 1.05635379E-04-1.31926344E-04-4.27192638E-04-5.50260311E-04
 4 12-5.05093688E-04-2.79286047E-04 3.50289182E-04-7.58055040E-06 2.41409427E-04
 5  1-8.75468625E-02-2.31922879E-01 7.36725850E-03 5.75156144E-03 6.31005960E-01
 5  2 1.91599523E-02 9.14088638E-02-2.17626995E-01 9.81642579E-03-6.51987500E-03
 5  3 6.50948199E-03 1.18858547E-03 6.39251752E-03 1.28746544E-02-4.45919604E-03
 5  4-1.91130135E-03-2.52013833E-03 7.37409561E-04-1.31564891E-02-1.18378872E-02
 5  5 6.42702836E-03-1.75722487E-02-1.61646324E-02-5.89439995E-03-1.70451721E-02
 5  6-7.22608229E-02-3.05716975E-02 8.46584104E-03-7.06937313E-02-1.02842454E-02
 5  7 2.27132062E-02-1.65792738E-02 8.80210025E-03 7.31634036E-03-5.33319911E-03
 5  8-3.05716437E-03 2.01456401E-03-2.40980008E-03-5.20243167E-04 1.19034020E-04
 5  9-1.59098449E-04-1.02709658E-04-4.25980865E-04 5.20593356E-04 5.90064687E-04
 5 10 1.33041705E-05-7.41816371E-05-3.59570719E-05-2.93253910E-04-2.42990420E-03
 5 11 2.29361097E-04-1.52122697E-05-3.99821242E-04-4.83115793E-04 6.44303555E-04
 5 12-4.28628759E-04 1.32166108E-03-3.53160298E-04-7.01772212E-05-2.31119916E-04
 6  1-1.01646805E-03-9.25654699E-04-1.21777821E-01-2.53520377E-02 1.91599523E-02
 6  2 8.80667462E-01-1.76599365E-02 1.61646474E-02-1.23047167E-01 9.99064696E-03
 6  3 3.44361146E-03 2.11880289E-03 1.30999960E-02-6.31935977E-03 2.92430546E-03
 6  4 1.89291801E-03 1.41879655E-03-4.05225685E-05-2.28876855E-02-2.87261884E-02
 6  5 8.15791406E-03 2.09477953E-02 2.25875207E-02 4.23661993E-03-1.63186550E-01
 6  6-3.27008091E-02-3.64429334E-01 1.91751811E-01-8.75282868E-03-2.98585395E-01
 6  7 1.71862153E-02-1.52869959E-02 5.80560330E-03-2.65635216E-02 3.00407614E-02
 6  8 4.54740841E-03 1.19163764E-03-5.79442373E-04 6.06487844E-04-1.01125828E-04
 6  9 8.74256467E-05-2.16234145E-05 3.19711162E-04-3.10892944E-04-4.18489807E-04
 6 10-3.33630799E-05-1.29393658E-05 5.40430333E-05 6.76861155E-04 1.11206445E-03
 6 11-1.14902502E-03 2.36710916E-04-7.39482072E-05 5.98349102E-04-5.92673962E-04
 6 12-3.98253565E-04-3.79729730E-04 9.91481961E-05 7.25497669E-05 1.32289724E-04
 7  1 1.55368386E-02-9.19735961E-03 3.28978444E-03-1.81719335E-01 9.14088638E-02
 7  2-1.76599365E-02 6.27549172E-01 4.43098375E-02 3.15786910E-02 2.49714281E-03
 7  3-1.28976208E-02 6.81958276E-03-2.45155426E-01-6.88869123E-02 4.76327449E-02
 7  4-1.23923081E-02-7.75631365E-03 5.04625001E-03-1.55129272E-03-3.24601694E-04
 7  5 7.30262231E-04-4.14687108E-03-2.71055513E-03-3.04342569E-04-9.24493506E-03
 7  6 1.85336753E-02 2.81233549E-03-1.13440904E-02 2.13753355E-02-9.11776179E-03
 7  7-9.68635442E-02-7.62092729E-02-5.88539105E-02-6.68148629E-02 3.25759303E-03
 7  8-9.93275630E-03-1.66892868E-03 1.58391046E-03 8.77970660E-04 1.41437013E-03
 7  9-1.19068771E-03-1.28613923E-03 2.05499608E-04 7.33593744E-04 1.18275195E-03
 7 10 3.69023094E-04-1.63366894E-04-2.38956406E-04-1.07169684E-02 5.45937157E-03
 7 11-1.43628606E-03 3.38640401E-04-1.45732858E-03 9.89354957E-04-8.76225543E-03
 7 12-6.43731526E-03-3.78319462E-03 2.46995665E-03 5.69520373E-04 1.65366401E-03
 8  1 1.34780179E-02-3.53140450E-02 8.94123297E-03 8.75909271E-02-2.17626995E-01
 8  2 1.61646474E-02 4.43098375E-02 8.20617090E-01 1.76538848E-02-2.94598892E-02
 8  3-2.00831816E-02 1.47847036E-02-5.33309722E-02-1.35120867E-01 1.12741072E-02
 8  4 1.81217150E-02 1.25567680E-02-5.41333875E-03-1.06299276E-03-1.06067294E-03
 8  5 5.80251326E-04-2.06994892E-03-3.26460724E-03-1.54100385E-03-2.06356411E-03
 8  6 2.10728889E-04-2.15582939E-03-1.96257177E-03-4.12593912E-05 2.91815934E-03
 8  7-7.31321390E-02-2.97368210E-01-1.74939401E-01 2.90355178E-03-1.15368490E-01
 8  8 1.17644768E-01 6.01233680E-04-5.09198248E-03-2.98343726E-03-4.52175757E-04
 8  9 1.45996016E-03 3.80945105E-04 2.08161345E-03-3.07557032E-03-3.43577341E-03
 8 10 5.26123823E-05 7.92849294E-05 3.10677147E-04-4.49601646E-03 2.64822526E-04
 8 11 5.53305779E-04 3.27627103E-05-8.20256517E-04 3.84821790E-04-1.97260113E-03
 8 12-1.39062996E-03-1.43828646E-03 8.30647190E-04 4.38171311E-04 3.15437895E-04
 9  1 2.53941446E-03-3.20716492E-03-2.46163525E-03-1.59879413E-02 9.81642579E-03
 9  2-1.23047167E-01 3.15786910E-02 1.76538848E-02 8.57601129E-01 7.50594119E-03
 9  3 6.34815505E-03 7.83926429E-03 4.86892501E-02 1.74525975E-02-1.17977629E-01
 9  4 1.47560802E-02 9.61292722E-03 4.23421826E-04-5.18556165E-05-4.20812453E-04
 9  5-5.99558539E-05 1.74834568E-04 6.76028205E-04 3.97199415E-04-2.31522406E-02
 9  6 3.33103156E-02 2.34683844E-03 1.65934716E-02-2.53391847E-02 8.60555208E-03
 9  7-5.64725766E-02-1.76355556E-01-2.13798550E-01-1.15552293E-02 1.20223311E-01
 9  8-4.23882319E-01 2.92142647E-03 7.14364430E-04 4.66296368E-03-7.89901008E-04
 9  9 4.95523404E-05 3.52450119E-04 1.24427115E-03-2.67778214E-03-7.90418238E-04
 9 10-8.10250982E-04 5.40914822E-04 1.10332825E-03-1.09918342E-02 6.35782962E-04
 9 11 1.42797627E-03 2.15285953E-04-3.03724921E-03-1.54144541E-03-6.19393060E-03
 9 12-5.41330472E-03-1.78990661E-03-2.12857578E-04-5.83131784E-04 5.89208708E-04
10  1-2.75797040E-01 5.32941855E-02 3.24710599E-02-3.25971224E-02-6.51987500E-03
10  2 9.99064696E-03 2.49714281E-03-2.94598892E-02 7.50594119E-03 7.10748729E-01
10  3 1.19704823E-02-2.25559333E-01-1.19447087E-01 5.79423699E-02 1.49760241E-02
10  4 2.99942899E-03 2.76327353E-02-3.85024459E-03-4.43243655E-03 2.11585875E-03
10  5-1.58739779E-03-7.94825896E-03 1.11556017E-03 5.36965691E-03-2.85475551E-04
10  6 5.50806940E-04-1.01776349E-05-2.08089053E-03-1.46534360E-03-1.29365243E-03
10  7-4.07259096E-03 3.63810961E-04 1.92868008E-03-3.55118701E-03-9.43216673E-04
10  8 3.04392853E-04-2.11745959E-01-1.13720516E-01 1.72111514E-01-2.12893344E-03
10  9 2.48574452E-03 4.70580029E-03 2.09084155E-03-7.06357021E-04-1.51889718E-03
10 10 2.38950093E-04-4.69431082E-04-1.26429352E-04-4.42740307E-02-3.06910372E-02
10 11-1.29339855E-02-1.33661549E-02 1.79147227E-02-2.23266629E-02 2.92180840E-03
10 12 9.11228919E-03 1.85916213E-02 2.29989546E-04-5.22966236E-04 1.25165156E-03
11  1 6.88563322E-02-1.31395547E-01 3.76992576E-03-2.39372667E-02 6.50948199E-03
11  2 3.44361146E-03-1.28976208E-02-2.00831816E-02 6.34815505E-03 1.19704823E-02
11  3 8.75910249E-01-2.22287663E-01-1.59615109E-02-4.50136688E-01-1.68315614E-02
11  4 2.02919309E-03-1.21511050E-02 5.80738192E-03 2.28121591E-02-3.23949271E-03
11  5 1.02189410E-03 2.52644601E-02-4.42105766E-03-8.56048812E-03-3.09509835E-04
11  6-1.81734272E-03 7.81965809E-04-1.12394738E-03-4.21439983E-03-7.02195930E-04
11  7-5.15461701E-04-7.66022810E-04 7.24692440E-04 1.67663314E-03-8.79178727E-04
11  8 1.28949887E-04-1.19725416E-01-1.73403759E-01 1.46509308E-01 1.33620227E-04
11  9 7.24501562E-04-2.42774515E-05-8.74259561E-04 1.26271652E-03 9.25854417E-04
11 10-1.41619657E-03 1.25954237E-03 1.16206695E-03 3.61566302E-02-1.10821849E-01
11 11 6.05446164E-02-7.23334832E-03 1.06214062E-02-1.19475084E-02 2.27865150E-02
11 12 7.38824613E-03 4.10923482E-02-7.69101392E-03 9.65329218E-03-1.19070777E-02
12  1 3.81873421E-02-6.65620453E-05-1.01036897E-01 6.82799932E-03 1.18858547E-03
12  2 2.11880289E-03 6.81958276E-03 1.47847036E-02 7.83926429E-03-2.25559333E-01
12  3-2.22287663E-01 4.48799019E-01 1.33739700E-02 9.07508211E-02-9.34641368E-02
12  4 1.93681338E-03-1.85189063E-02 1.14959486E-02 3.10592704E-02-5.51662209E-03
12  5 2.84237548E-03-2.91934223E-02 8.45170186E-03 9.11398186E-03 1.01772261E-03
12  6 4.96165801E-04-3.73373771E-04 3.18187756E-04 1.57833776E-03 4.00236561E-04
12  7 1.39978334E-03 9.48662422E-04-1.56198433E-03 5.31067773E-04-7.58770462E-04
12  8 2.38992815E-04 1.63915545E-01 1.31243950E-01-2.03675631E-01 3.16428250E-03
12  9-4.58571149E-04-1.49106650E-03-4.88485369E-04-8.57975822E-04 3.80067025E-04
12 10 4.73119746E-04-2.96072706E-04 1.23600213E-03-1.27128489E-02-4.53489960E-02
12 11-6.81153736E-02-5.26454373E-03 8.84453124E-03-1.18986220E-02 1.86287039E-02
12 12 1.62775785E-02 2.24956160E-02-1.44351655E-02 1.95442204E-02-2.53431455E-02
13  1-3.83614077E-03 3.77035734E-02 1.07051199E-02-3.62308397E-02 6.39251752E-03
13  2 1.30999960E-02-2.45155426E-01-5.33309722E-02 4.86892501E-02-1.19447087E-01
13  3-1.59615109E-02 1.33739700E-02 6.47096894E-01-1.91362345E-02-2.04790895E-01
13  4-1.99584095E-01 6.90883966E-02 7.98158450E-02-4.51616800E-03 5.11701297E-04
13  5-4.21742095E-04-3.10467054E-03-3.51909029E-04 1.37635513E-03-3.19339200E-04
13  6-3.85162130E-04-1.19705691E-04-2.33043582E-03 1.91443086E-03-1.96096717E-03
13  7-5.69560608E-03-7.39638589E-04 5.84870294E-03 1.17225845E-03-4.89648595E-04
13  8-2.23896061E-03 3.60059806E-03-2.48180492E-02-9.11954546E-03-2.09289120E-03
13  9 1.22645132E-04 3.40454594E-03-1.94511310E-02 2.77526518E-02 2.41248047E-02
13 10 1.06050430E-02-9.63152755E-03-7.89484350E-03-2.03626599E-02-5.66284025E-02
13 11 2.15734447E-02-1.20584076E-03 4.27033428E-03-9.27092114E-03-1.24735216E-03
13 12 1.99449316E-02 1.28180112E-02 2.10459766E-03 1.37712843E-02 9.87211343E-04
14  1 1.67677571E-02-2.35402174E-02-1.99734016E-02 2.03151569E-02 1.28746544E-02
14  2-6.31935977E-03-6.88869123E-02-1.35120867E-01 1.74525975E-02 5.79423699E-02
14  3-4.50136688E-01 9.07508211E-02-1.91362345E-02 8.29458555E-01 9.32496537E-02
14  4 7.68656757E-02-1.87154738E-01-5.87760198E-02 4.76889585E-04-2.15578393E-03
14  5 6.76612543E-04-4.28111638E-03-4.92477755E-04 8.12290861E-04 2.38265098E-04
14  6-2.81428292E-03-4.00442736E-04 1.51771569E-03-5.81798477E-03 1.60629516E-03
14  7-2.73574697E-02-7.56327535E-03 1.27647535E-02-1.46128095E-02-4.73458777E-03
14  8 5.01564792E-04-4.51168919E-03-1.91092887E-02-2.13695069E-02 2.69895190E-02
14  9-1.78467287E-02-3.11021172E-02-1.27873253E-02 1.48979913E-02 1.17929851E-02
14 10 2.46143912E-03-2.83115039E-03-2.69671515E-03-4.70221144E-02 6.56343356E-02
14 11-7.82787872E-02 7.89881088E-03-1.22992620E-02 7.71542026E-03-1.62118967E-02
14 12-3.83225899E-02-2.94837890E-02 3.33362685E-03-1.29247494E-02 1.10771624E-02
15  1-1.65002135E-03-5.56441322E-03 1.22661912E-03 2.74869655E-03-4.45919604E-03
15  2 2.92430546E-03 4.76327449E-02 1.12741072E-02-1.17977629E-01 1.49760241E-02
15  3-1.68315614E-02-9.34641368E-02-2.04790895E-01 9.32496537E-02 3.50277470E-01
15  4 8.45048891E-02-6.15876559E-02-1.44826637E-01 3.57192452E-03-9.48197483E-04
15  5-2.98533839E-05-4.26703005E-04 1.33285228E-04-7.09000534E-04 3.13838305E-04
15  6 7.03745787E-04-3.77057446E-04 8.52776152E-04-8.41606529E-06 2.41079357E-04
15  7-2.43458783E-02-7.09371432E-03 8.58259812E-03 3.98581317E-02 1.15166868E-02
15  8-2.78115595E-03 8.16059883E-05 2.68276522E-02 9.93779321E-03-1.31395257E-02
15  9 7.66781073E-03 1.09793393E-02 2.43653690E-04-1.69140953E-03-3.51938012E-03
15 10 2.50035593E-02-2.10644166E-02-1.75257866E-02 2.14877120E-02-9.32472651E-02
15 11-6.63839979E-03-7.56065418E-04 1.73781876E-02-1.15018624E-04 1.08601149E-02
15 12 3.09289119E-02 8.82456289E-03-7.02677299E-03 1.28161448E-02-5.02999093E-03
16  1-1.01795013E-03-1.56999130E-03 2.83562121E-03-2.42375018E-03-1.91130135E-03
16  2 1.89291801E-03-1.23923081E-02 1.81217150E-02 1.47560802E-02 2.99942899E-03
16  3 2.02919309E-03 1.93681338E-03-1.99584095E-01 7.68656757E-02 8.45048891E-02
16  4 8.08805218E-01 5.49856598E-02 4.92444046E-02-9.67001404E-05 3.92825533E-04
16  5-5.96614575E-05 8.69398526E-04 6.74231813E-05-2.96254554E-04-1.17371149E-04
16  6 3.53192759E-04 3.28560175E-05-6.19229052E-04 1.00650998E-03-3.49435541E-04
16  7 2.21339167E-03 1.71002359E-03 1.43985778E-04-1.63439595E-03-2.31866349E-05
16  8 7.05529351E-05 3.45828925E-05-1.12877766E-03-1.90623893E-03-8.30778778E-02
16  9 3.80007376E-02-2.08040636E-02-3.86186997E-01-1.62111098E-01 1.84295299E-02
16 10-1.30004880E-01-1.75922410E-02-1.35591848E-01 2.25629707E-03 7.10258130E-04
16 11-8.08355711E-03 4.90979102E-04-1.06787246E-03-8.24397212E-04 1.07056530E-03
16 12-6.04135598E-03-5.27926347E-03-1.58402639E-03-2.79794285E-03-6.53256986E-04
17  1-2.62824343E-03-4.28988526E-03-3.08524438E-03-2.88787786E-03-2.52013833E-03
17  2 1.41879655E-03-7.75631365E-03 1.25567680E-02 9.61292722E-03 2.76327353E-02
17  3-1.21511050E-02-1.85189063E-02 6.90883966E-02-1.87154738E-01-6.15876559E-02
17  4 5.49856598E-02 8.21278946E-01-5.35814991E-02 1.61630117E-03-3.03817060E-04
17  5 1.74874283E-04 2.52389378E-04 1.31490808E-04-1.49948754E-04-9.74146609E-05
17  6 4.05581358E-04 5.75867901E-05-3.66478556E-04 9.57109931E-04-3.36560183E-04
17  7 4.72865572E-04 1.18838929E-03 9.46257546E-05-1.96128241E-03-3.82839100E-04
17  8-2.51686801E-04 7.05313633E-04 3.20190610E-03 9.71422501E-04 3.67281938E-02
17  9-3.94292612E-01 1.49569968E-01-1.59645506E-01-1.59931567E-01 1.39044607E-02
17 10-1.65847393E-02-8.00327895E-02-3.53189657E-02 2.89777991E-04 1.62783814E-03
17 11-1.29115681E-03 1.95575626E-06 5.08383036E-04 8.39537413E-04-7.40892499E-04
17 12-9.26549946E-04-3.23992254E-03 8.95006829E-04 1.29895732E-04 7.17400478E-04
18  1 1.22471436E-03 2.92762845E-03 4.61646550E-03-2.74821016E-04 7.37409561E-04
18  2-4.05225685E-05 5.04625001E-03-5.41333875E-03 4.23421826E-04-3.85024459E-03
18  3 5.80738192E-03 1.14959486E-02 7.98158450E-02-5.87760198E-02-1.44826637E-01
18  4 4.92444046E-02-5.35814991E-02 7.78488330E-01-1.52087584E-03 4.08240284E-04
18  5-9.08189663E-05 3.63801614E-04-1.61778544E-04-1.73708133E-04-5.90696133E-05
18  6-1.25224473E-04-2.14322479E-06-1.39507622E-04-1.54540828E-04 2.60267421E-05
18  7-9.74173883E-04-1.91521723E-04 6.70769418E-04-1.16062201E-03-2.16397227E-05
18  8-8.58910956E-05-2.30725302E-03-1.37145104E-03-1.85571254E-03-1.95893580E-02
18  9 1.48385770E-01-1.42014402E-01 2.04060280E-02 1.41435944E-02-7.57522857E-02
18 10-1.31875614E-01-3.78304702E-02-3.97402430E-01 4.74480554E-03 5.43851447E-03
18 11-1.86240726E-02 6.21926501E-04-1.04124672E-03 1.85916373E-03 1.07738710E-03
18 12-1.47107252E-02-1.66385070E-02-7.93379777E-04-4.46890325E-03-7.28923410E-05
19  1-6.95187027E-02 1.54698411E-02 2.38715907E-02 8.57742462E-05-1.31564891E-02
19  2-2.28876855E-02-1.55129272E-03-1.06299276E-03-5.18556165E-05-4.43243655E-03
19  3 2.28121591E-02 3.10592704E-02-4.51616800E-03 4.76889585E-04 3.57192452E-03
19  4-9.67001404E-05 1.61630117E-03-1.52087584E-03 7.69167196E-02-1.56912226E-02
19  5-2.49322841E-02 2.49174045E-03-7.60545124E-03-1.10013683E-02-1.80424485E-03
19  6-4.27449265E-03 5.65244284E-04 1.76581641E-03 1.06239272E-03-6.55144770E-04
19  7 6.49861703E-04-3.47931864E-04 8.62727146E-05 1.14095701E-04-1.55261321E-05
19  8-3.02250820E-05-1.38646773E-03 1.17874421E-03 3.14273897E-04-3.69038295E-04
19  9 2.64849792E-04 3.52174886E-04 1.06517823E-04-2.25378665E-05-2.54387167E-05
19 10 6.67788452E-05-1.20433432E-04-8.41515878E-05 1.56472301E-03-3.81218234E-05
19 11 2.06236749E-03 1.24864962E-04-1.85882706E-04-1.44182750E-04-2.06518687E-04
19 12-3.54500499E-04-4.45283340E-04-5.39001992E-06-5.63122757E-06-1.04496392E-04
20  1 1.46581343E-02-1.80817760E-01-1.69927105E-01 1.39908525E-03-1.18378872E-02
20  2-2.87261884E-02-3.24601694E-04-1.06067294E-03-4.20812453E-04 2.11585875E-03
20  3-3.23949271E-03-5.51662209E-03 5.11701297E-04-2.15578393E-03-9.48197483E-04
20  4 3.92825533E-04-3.03817060E-04 4.08240284E-04-1.56912226E-02 1.81825621E-01
20  5 1.78539348E-01-2.76420695E-03 1.78805669E-02 2.75085496E-02-1.57459374E-03
20  6-3.82364922E-03 7.73099045E-04 1.74613026E-03 2.76061483E-03-1.53919763E-04
20  7 3.71573851E-04-3.79969165E-04 2.71225557E-04 8.42646626E-05-1.13767282E-04
20  8-1.66285030E-05-1.16918120E-04-4.36226202E-04-5.05984685E-04 7.35470537E-05
20  9-3.21767007E-05-8.16373163E-05 1.82527234E-05-2.09790102E-05-2.88082308E-05
20 10-1.00153526E-04 7.93951330E-05 6.99330308E-05-4.27800525E-04 1.52524784E-03
20 11-1.34658969E-03 3.10326457E-05-7.41477808E-05 3.56069065E-04-2.50228337E-04
20 12 8.59248069E-05-3.18280027E-04-1.52678761E-04 1.39056055E-04 6.43344814E-05
21  1 2.32955962E-02-1.69500140E-01-3.60064711E-01 1.07783428E-03 6.42702836E-03
21  2 8.15791406E-03 7.30262231E-04 5.80251326E-04-5.99558539E-05-1.58739779E-03
21  3 1.02189410E-03 2.84237548E-03-4.21742095E-04 6.76612543E-04-2.98533839E-05
21  4-5.96614575E-05 1.74874283E-04-9.08189663E-05-2.49322841E-02 1.78539348E-01
21  5 3.68119696E-01 4.86878783E-03-2.16936812E-02-2.04947971E-02 6.59323838E-04
21  6 1.07617118E-03 3.54089684E-04 1.26042864E-04 5.28768168E-04 1.27705827E-03
21  7-2.27547113E-04 1.74825531E-04-7.90447729E-05-4.97839959E-05 9.50114277E-07
21  8 5.89382375E-05-1.48049900E-04 1.60942971E-04-1.87397449E-04-9.15324725E-06
21  9 3.37125006E-05 3.80327067E-05 5.21135248E-06 2.21809159E-06-1.08008650E-06
21 10 1.23561769E-05 7.66244298E-06-7.18118107E-06-2.07765739E-03 1.31715450E-03
21 11-9.71222131E-05-1.28036327E-04 7.09827909E-05-6.04226229E-05-3.18506173E-04
21 12 1.34496941E-04 1.79274267E-04-8.15620214E-04 2.66046707E-04 1.44844762E-04
22  1-1.00963362E-01 6.40370851E-02-8.01925987E-02 8.02684128E-03-1.75722487E-02
22  2 2.09477953E-02-4.14687108E-03-2.06994892E-03 1.74834568E-04-7.94825896E-03
22  3 2.52644601E-02-2.91934223E-02-3.10467054E-03-4.28111638E-03-4.26703005E-04
22  4 8.69398526E-04 2.52389378E-04 3.63801614E-04 2.49174045E-03-2.76420695E-03
22  5 4.86878783E-03 1.04120805E-01-6.52408713E-02 8.48951411E-02 1.95123381E-03
22  6 7.35272106E-04 6.61788742E-04-9.42998600E-04-1.83236342E-03-2.81831138E-04
22  7 8.08402532E-04-3.59875523E-04 1.35712658E-04 5.59892155E-04-1.85668238E-04
22  8-1.60423916E-04 2.56377977E-03-9.02633949E-04-4.45026450E-04-1.07190441E-04
22  9 5.95662373E-07 1.05697755E-04 8.68988157E-05-8.73903040E-06-1.09359456E-04
22 10-2.48490427E-04 2.31148594E-04 7.69571349E-05-2.18642618E-03 5.18962910E-03
22 11 1.77993272E-04-1.27879131E-04 7.86442829E-05 1.82632618E-05-1.65008570E-03
22 12-1.09496737E-04-2.01655126E-03-5.28773566E-05-4.62104943E-04 3.99130536E-04
23  1 6.41596494E-02-2.08025809E-01 1.69235941E-01 9.75412453E-03-1.61646324E-02
23  2 2.25875207E-02-2.71055513E-03-3.26460724E-03 6.76028205E-04 1.11556017E-03
23  3-4.42105766E-03 8.45170186E-03-3.51909029E-04-4.92477755E-04 1.33285228E-04
23  4 6.74231813E-05 1.31490808E-04-1.61778544E-04-7.60545124E-03 1.78805669E-02
23  5-2.16936812E-02-6.52408713E-02 2.13107054E-01-1.78594952E-01 1.77878511E-03
23  6 2.70334785E-03 6.13832437E-04-5.10106657E-04-1.84515331E-03-1.11907941E-04
23  7 4.78654264E-04-4.67474385E-04 1.27879450E-04 4.11537678E-04-3.70459037E-04
23  8-1.14097033E-04-1.11065041E-03 8.90847164E-04-3.86397088E-04-3.06851036E-05
23  9 3.64451396E-05-9.83683112E-06 2.47849047E-05-3.78617631E-05-3.18864247E-05
23 10 4.79340857E-05-4.67967259E-05 1.74726062E-06-2.48732611E-04 1.36816721E-04
23 11-8.59739574E-04 8.02455406E-05-3.21717652E-05 1.28460264E-04 8.63961732E-05
23 12 7.57652863E-05 6.54334223E-05-1.96177497E-04 2.06251102E-04-5.76117830E-05
24  1-7.92130543E-02 1.68855994E-01-2.99969336E-01-9.05829359E-04-5.89439995E-03
24  2 4.23661993E-03-3.04342569E-04-1.54100385E-03 3.97199415E-04 5.36965691E-03
24  3-8.56048812E-03 9.11398186E-03 1.37635513E-03 8.12290861E-04-7.09000534E-04
24  4-2.96254554E-04-1.49948754E-04-1.73708133E-04-1.10013683E-02 2.75085496E-02
24  5-2.04947971E-02 8.48951411E-02-1.78594952E-01 3.04483240E-01-5.23854949E-05
24  6-1.03122809E-03 1.60375126E-03 3.94469728E-05-2.03592860E-04 6.35638494E-05
24  7 9.43356806E-05-2.62138314E-05 4.74498842E-05 6.77379361E-05-2.39321529E-04
24  8-9.11881396E-06 2.08571454E-05-5.98729207E-05 9.25910935E-04 1.39495939E-05
24  9-7.62774972E-06-3.87358547E-05-3.49506661E-05 1.10906325E-05 2.79847140E-05
24 10 7.57296096E-05-6.98654108E-05-2.08258643E-05 9.18498514E-05-1.39385780E-03
24 11-5.07567785E-04-1.29912944E-04 1.33729175E-04 1.47045871E-04 3.86951605E-04
24 12 1.51191793E-04 8.02124577E-04-4.93883459E-04 2.99407322E-04 7.41549760E-05
25  1-7.48562337E-03-2.22863676E-03-1.96528613E-02-1.75128260E-01-1.70451721E-02
25  2-1.63186550E-01-9.24493506E-03-2.06356411E-03-2.31522406E-02-2.85475551E-04
25  3-3.09509835E-04 1.01772261E-03-3.19339200E-04 2.38265098E-04 3.13838305E-04
25  4-1.17371149E-04-9.74146609E-05-5.90696133E-05-1.80424485E-03-1.57459374E-03
25  5 6.59323838E-04 1.95123381E-03 1.77878511E-03-5.23854949E-05 1.72821586E-01
25  6 1.78419000E-02 1.73012081E-01 1.99695417E-02 3.09970046E-03 3.00270023E-02
25  7 2.02167072E-03-1.83383466E-03 3.50936917E-04-2.23940929E-03 2.03720677E-03
25  8 6.10548826E-04-2.32866546E-04 7.67339874E-06-3.97589604E-05 1.83086546E-06
25  9-3.73391466E-06 2.79879972E-05-1.62476758E-05 6.44631509E-05 5.47975279E-05
25 10-7.01697069E-05 4.70115573E-05 2.03547572E-05 2.66651179E-04 7.22128353E-05
25 11 6.63093521E-07-2.32245312E-05-3.03663909E-05 5.10041963E-05-3.06469471E-05
25 12-9.86939570E-06 6.62312969E-06-3.47713162E-05 9.48536593E-06-1.00611943E-05
26  1-1.74564931E-02-5.66934290E-03-3.26088185E-02-1.81726667E-02-7.22608229E-02
26  2-3.27008091E-02 1.85336753E-02 2.10728889E-04 3.33103156E-02 5.50806940E-04
26  3-1.81734272E-03 4.96165801E-04-3.85162130E-04-2.81428292E-03 7.03745787E-04
26  4 3.53192759E-04 4.05581358E-04-1.25224473E-04-4.27449265E-03-3.82364922E-03
26  5 1.07617118E-03 7.35272106E-04 2.70334785E-03-1.03122809E-03 1.78419000E-02
26  6 8.21076658E-02 3.13848497E-02-1.19279098E-03 6.14071518E-04-3.65532108E-04
26  7-8.65990930E-04 2.61847487E-03 7.50741792E-04 4.78920284E-03-3.73866209E-03
26  8-5.20354825E-04-5.28915666E-04 3.49311778E-04 1.49189287E-05-8.79018551E-05
26  9 5.44203000E-05 3.88878372E-05 7.03435268E-05-9.10975460E-05-1.09040723E-04
26 10 1.14024802E-05 2.07694968E-05 1.07327400E-05 6.80544817E-05 7.41716670E-04
26 11-1.86431235E-04 1.84799283E-05 9.74392673E-05 1.41318912E-04-7.55963620E-05
26 12 2.05291732E-04-3.65431755E-04 6.76699274E-05 8.64017453E-05 8.51454885E-05
27  1 5.40977640E-03 3.39051791E-03 7.25278900E-03-1.60647507E-01-3.05716975E-02
27  2-3.64429334E-01 2.81233549E-03-2.15582939E-03 2.34683844E-03-1.01776349E-05
27  3 7.81965809E-04-3.73373771E-04-1.19705691E-04-4.00442736E-04-3.77057446E-04
27  4 3.28560175E-05 5.75867901E-05-2.14322479E-06 5.65244284E-04 7.73099045E-04
27  5 3.54089684E-04 6.61788742E-04 6.13832437E-04 1.60375126E-03 1.73012081E-01
27  6 3.13848497E-02 3.71874581E-01-2.25600916E-02-2.79281165E-03-2.03429680E-02
27  7 7.49974876E-04-6.52058110E-04 1.39831805E-03-8.22723690E-05-1.71728807E-04
27  8 5.85926925E-04 1.11370218E-04-1.35374862E-04-3.36582744E-05-3.49481396E-06
27  9 4.49584030E-06-5.09998925E-07 1.10374563E-05-3.74052309E-06-1.50502724E-05
27 10-2.74291502E-06 5.66203153E-07 7.86409713E-06 6.19913820E-05-1.99365468E-04
27 11-4.91616204E-06-4.43435526E-05 2.69357397E-05 3.42941451E-05 8.15480183E-05
27 12 5.77925866E-05 1.04882658E-04-3.96541685E-05-8.64744914E-06 1.56140870E-05
28  1-9.47300559E-03 3.33561585E-03 1.40608273E-02-2.44955211E-01 8.46584104E-03
28  2 1.91751811E-01-1.13440904E-02-1.96257177E-03 1.65934716E-02-2.08089053E-03
28  3-1.12394738E-03 3.18187756E-04-2.33043582E-03 1.51771569E-03 8.52776152E-04
28  4-6.19229052E-04-3.66478556E-04-1.39507622E-04 1.76581641E-03 1.74613026E-03
28  5 1.26042864E-04-9.42998600E-04-5.10106657E-04 3.94469728E-05 1.99695417E-02
28  6-1.19279098E-03-2.25600916E-02 2.49766106E-01-8.76912426E-03-2.01325297E-01
28  7-9.19117226E-04 4.91235153E-04-3.35536456E-05 1.87550186E-03-1.77279907E-03
28  8 5.44271950E-04-4.67317215E-04 1.62170929E-04-1.82489231E-04-1.67956814E-06
28  9-1.24976951E-05 2.97210551E-05-8.17370945E-05 1.61583458E-04 1.26266993E-04
28 10 1.45435512E-05-1.96636726E-05-5.01148617E-05-1.41886602E-04 6.58430589E-05
28 11 2.70719493E-04-6.97471691E-06-6.45202076E-05-2.65079184E-04-4.00739037E-05
28 12-1.00451138E-04-7.02471678E-05 1.31332431E-05-5.12312579E-05-8.71568248E-05
29  1-2.23675859E-02 2.91812843E-03 2.67348522E-02 7.17545733E-03-7.06937313E-02
29  2-8.75282868E-03 2.13753355E-02-4.12593912E-05-2.53391847E-02-1.46534360E-03
29  3-4.21439983E-03 1.57833776E-03 1.91443086E-03-5.81798477E-03-8.41606529E-06
29  4 1.00650998E-03 9.57109931E-04-1.54540828E-04 1.06239272E-03 2.76061483E-03
29  5 5.28768168E-04-1.83236342E-03-1.84515331E-03-2.03592860E-04 3.09970046E-03
29  6 6.14071518E-04-2.79281165E-03-8.76912426E-03 7.23908482E-02 9.31423314E-03
29  7 1.41630671E-03-1.31969944E-03 4.64827892E-04-1.26177732E-03 2.52246886E-03
29  8-6.98497601E-04-1.21402839E-03 7.51366900E-04-1.71959589E-04-1.11610930E-04
29  9 9.98063184E-05 4.42703327E-05 1.92649347E-04-2.12343924E-04-2.47740247E-04