!File created by the GAMESS Input Deck Generator Plugin for Avogadro
 $BASIS GBASIS=STO NGAUSS=3 $END
 $CONTRL SCFTYP=RHF RUNTYP=IRC NZVAR=1 mult=1  ICHARG=0 $END
 $STATPT hssend=.t. OPTTOL=0.0005 NSTEP=50 $END
 $STATPT HESS=READ ihrep=5 $END
 $FORCE nvib=2 $END
 $ZMAT DLC=.t. auto=.t. nonvdw(1)=17,4,19,5,17,19,5,4 $END
!$ZMAT IFZMAT(1)=1,17,4,1,19,5,1,17,19, fvalue(1)=2.08,2.01,1.98 $END
 $irc npoint=50 saddle=.t. tsengy=.t. forwrd=.t. opttol=0.0005 stride=0.2 $end

 $DATA 
Title
C1
C     6.0    -0.25397605     1.18583977     0.11529635
C     6.0    -1.13683391    -0.09443218     0.16169581
C     6.0    -0.16648531    -1.29597986     0.31805751
C     6.0     1.18116105     0.67527074    -0.10013091
C     6.0     1.21069956    -0.73709011    -0.10319000
C     6.0     2.18744636    -1.58876896    -0.91501051
H     1.0    -0.33947918     1.75803065     1.03532457
H     1.0    -0.55640280     1.83458257    -0.70429343
H     1.0    -1.68693936    -0.19559251    -0.77072740
H     1.0    -1.86247838    -0.06292989     0.96962255
H     1.0    -0.43737876    -2.13111305    -0.32402828
H     1.0    -0.13549881    -1.65816283     1.34225166
H     1.0     1.82986331     1.22900653    -0.76309210
H     1.0     2.31467843    -2.57130909    -0.47051325
H     1.0     3.15255380    -1.09749115    -0.98644209
H     1.0     1.77729452    -1.70895839    -1.91598499
B     5.0     2.02233982     0.22461648     1.33981586
H     1.0     3.10538507     0.60072446     1.21130991
H     1.0     2.07688546    -0.96867871     1.40072322
H     1.0     1.37180400     0.56584388     2.22892547
 $END
