!File created by the GAMESS Input Deck Generator Plugin for Avogadro
 $BASIS GBASIS=STO NGAUSS=3 $END
 $CONTRL SCFTYP=RHF RUNTYP=SADPOINT NZVAR=1 mult=1  ICHARG=0 $END
 $STATPT hssend=.t. OPTTOL=0.0005 NSTEP=50 $END
 $STATPT HESS=calc ihrep=5 $END
 $FORCE nvib=2 $END
 $ZMAT DLC=.t. auto=.t. nonvdw(1)=17,4,19,5,17,19,5,4 $END
!$ZMAT IFZMAT(1)=1,17,4,1,19,5,1,17,19, fvalue(1)=2.08,2.01,1.98 $END

 $DATA 
Title
C1
C     6.0    -0.29330495     1.17601943     0.08229428
C     6.0    -1.15743196    -0.11404254     0.08853382
C     6.0    -0.17255464    -1.28207302     0.36064646
C     6.0     1.12004960     0.66903788    -0.20710863
C     6.0     1.22320974    -0.73132300    -0.04805874
C     6.0     2.13767982    -1.56014442    -0.96486378
H     1.0    -0.36322448     1.70079851     1.03359067
H     1.0    -0.61787975     1.86720169    -0.69313294
H     1.0    -1.61994529    -0.24662702    -0.88664335
H     1.0    -1.95136285    -0.07679278     0.82959020
H     1.0    -0.41244557    -2.16415548    -0.22879741
H     1.0    -0.19049627    -1.56877625     1.40778518
H     1.0     1.79879427     1.21442163    -0.84632516
H     1.0     2.19718409    -2.59258223    -0.63671559
H     1.0     3.13849831    -1.13991308    -0.98965955
H     1.0     1.72948432    -1.53559256    -1.97424984
B     5.0     2.19995332     0.27572140     1.52653205
H     1.0     3.29460073     0.55081421     1.29176283
H     1.0     2.11043978    -1.70151210     1.47235441
H     1.0     1.51347458     0.57796431     2.40175915
 $END
